
Gurobi 11.0.1 (win64) logging started Tue May 14 15:50:23 2024

Set parameter LogFile to value "output/solver_log7.txt"
Gurobi Optimizer version 11.0.1 build v11.0.1rc0 (win64 - Windows 11.0 (22631.2))

CPU model: 11th Gen Intel(R) Core(TM) i7-1165G7 @ 2.80GHz, instruction set [SSE2|AVX|AVX2|AVX512]
Thread count: 4 physical cores, 8 logical processors, using up to 8 threads

Optimize a model with 2134 rows, 383 columns and 39401 nonzeros
Model fingerprint: 0x6a3f59fd
Variable types: 248 continuous, 135 integer (135 binary)
Coefficient statistics:
  Matrix range     [4e-01, 1e+05]
  Objective range  [1e+00, 1e+02]
  Bounds range     [1e+00, 1e+00]
  RHS range        [1e-02, 1e+05]

User MIP start produced solution with objective 39663.3 (0.01s)
User MIP start produced solution with objective 39663.3 (0.01s)
Loaded user MIP start with objective 39663.3

Presolve removed 97 rows and 96 columns
Presolve time: 0.05s
Presolved: 2037 rows, 287 columns, 38806 nonzeros
Variable types: 232 continuous, 55 integer (55 binary)

Root relaxation: objective 4.101911e+04, 699 iterations, 0.05 seconds (0.08 work units)

    Nodes    |    Current Node    |     Objective Bounds      |     Work
 Expl Unexpl |  Obj  Depth IntInf | Incumbent    BestBd   Gap | It/Node Time

     0     0 41019.1096    0   12 39663.3184 41019.1096  3.42%     -    0s
     0     0 40666.3396    0   11 39663.3184 40666.3396  2.53%     -    0s
     0     0 40474.1197    0   13 39663.3184 40474.1197  2.04%     -    0s
     0     0 40145.6641    0   11 39663.3184 40145.6641  1.22%     -    0s
     0     0 40006.3760    0   10 39663.3184 40006.3760  0.86%     -    0s
     0     0 39955.1886    0    7 39663.3184 39955.1886  0.74%     -    0s
     0     0 39955.1886    0    7 39663.3184 39955.1886  0.74%     -    0s
     0     0 39889.9917    0   16 39663.3184 39889.9917  0.57%     -    0s
     0     0 39799.8372    0    3 39663.3184 39799.8372  0.34%     -    0s
H    0     0                    39665.981249 39799.8372  0.34%     -    0s
H    0     0                    39666.202830 39799.8372  0.34%     -    0s
     0     0 39666.9557    0    6 39666.2028 39666.9557  0.00%     -    0s

Cutting planes:
  Gomory: 1
  Implied bound: 1
  MIR: 6

Explored 1 nodes (2836 simplex iterations) in 0.65 seconds (0.67 work units)
Thread count was 8 (of 8 available processors)

Solution count 4: 39666.2 39666.2 39666 39663.3 

Optimal solution found (tolerance 1.00e-04)
Best objective 3.966620283002e+04, best bound 3.966695571246e+04, gap 0.0019%
